coords = array2d(1..49, 1..2, [942, 849, 948, 587, 415, 580, 501, 450, 178, 16,
    634, 480, 481, 636, 823, 567, 520, 393, 642, 68, 162, 628, 230,
    803, 67, 561, 593, 386, 583, 26, 170, 269, 364, 118, 811, 63, 176,
    557, 968, 515, 434, 493, 124, 28, 579, 637, 654, 580, 514, 514,
    267, 611, 284, 124, 707, 330, 295, 589, 467, 521, 194, 912, 844,
    435, 319, 31, 106, 769, 585, 737, 396, 310, 4, 96, 786, 820, 261,
    109, 652, 391, 430, 745, 810, 190, 626, 587, 429, 240, 549, 772,
    776, 761, 253, 111, 374, 914, 189, 747]);

n = 49;

